Version identifier: 22.1.1.0 | 2022-11-28 | 9160aff4d
CPXPARAM_ClockType                               1
CPXPARAM_Read_DataCheck                          1
CPXPARAM_Threads                                 1
CPXPARAM_TimeLimit                               7200
CPXPARAM_MIP_Tolerances_AbsMIPGap                0
CPXPARAM_MIP_Tolerances_MIPGap                   0
CPXPARAM_MIP_Tolerances_Integrality              0
Tried aggregator 1 time.
MIP Presolve eliminated 14927 rows and 9 columns.
MIP Presolve modified 5618 coefficients.
Reduced MIP has 34564 rows, 14491 columns, and 111356 nonzeros.
Reduced MIP has 14491 binaries, 0 generals, 0 SOSs, and 0 indicators.
Presolve time = 0.15 sec. (84.87 ticks)
Probing time = 0.01 sec. (5.95 ticks)
Tried aggregator 1 time.
Detecting symmetries...
MIP Presolve eliminated 1000 rows and 0 columns.
Reduced MIP has 33564 rows, 14491 columns, and 106356 nonzeros.
Reduced MIP has 14491 binaries, 0 generals, 0 SOSs, and 0 indicators.
Presolve time = 0.16 sec. (89.90 ticks)
Probing time = 0.02 sec. (5.83 ticks)
Clique table members: 22588.
MIP emphasis: balance optimality and feasibility.
MIP search method: dynamic search.
Parallel mode: none, using 1 thread.
Root relaxation solution time = 33.92 sec. (15490.25 ticks)

        Nodes                                         Cuts/
   Node  Left     Objective  IInf  Best Integer    Best Bound    ItCnt     Gap

      0     0     8000.0000  2329                   8000.0000    30655         
      0     0     8000.0000  3118                   Cuts: 183    98806         
      0     0     8000.0000  3072                    Cuts: 83   165727         
      0     0     8000.0000  3223                   Cuts: 137   233625         
Heuristic still looking.
Heuristic still looking.
*     0+    0                         7204.0000     8000.0000            11.05%
*     0+    0                         7502.0000     8000.0000             6.64%
*     0+    0                         7518.0000     8000.0000             6.41%
*     0+    0                         7540.0000     8000.0000             6.10%
*     0+    0                         7580.0000     8000.0000             5.54%
      0     0        cutoff           7580.0000     8000.0000   233625    5.54%
Detecting symmetries...
      0     2     8000.0000  2531     7580.0000     8000.0000   233625    5.54%
Elapsed time = 1475.30 sec. (619582.45 ticks, tree = 0.01 MB, solutions = 5)
      1     3     8000.0000  3401     7580.0000     8000.0000   377987    5.54%
      2     4     8000.0000  3193     7580.0000     8000.0000   439169    5.54%
      3     5     8000.0000  3336     7580.0000     8000.0000   503524    5.54%
      4     6     8000.0000  3367     7580.0000     8000.0000   569992    5.54%
      5     7     8000.0000  3165     7580.0000     8000.0000   574340    5.54%
      6     8     8000.0000  2999     7580.0000     8000.0000   581495    5.54%
      7     9     8000.0000  2979     7580.0000     8000.0000   594155    5.54%
      8    10     7992.8000  2783     7580.0000     8000.0000   599803    5.54%
      9    11     8000.0000  2904     7580.0000     8000.0000   602314    5.54%
     10    12     7998.0000  2769     7580.0000     8000.0000   608571    5.54%
Elapsed time = 2368.81 sec. (1035932.45 ticks, tree = 0.59 MB, solutions = 5)
     11    13     8000.0000  2823     7580.0000     8000.0000   623375    5.54%
     14    16     8000.0000  2778     7580.0000     8000.0000   626037    5.54%
     16    18     8000.0000  2793     7580.0000     8000.0000   628323    5.54%
     17    19     8000.0000  2726     7580.0000     8000.0000   630485    5.54%
     19    21     8000.0000  2723     7580.0000     8000.0000   632789    5.54%
     21    23     8000.0000  2697     7580.0000     8000.0000   636004    5.54%
     22    24     8000.0000  2760     7580.0000     8000.0000   644794    5.54%
     25    27     8000.0000  2714     7580.0000     8000.0000   647803    5.54%
     30    32     8000.0000  2676     7580.0000     8000.0000   650977    5.54%
     33    35     8000.0000  2645     7580.0000     8000.0000   654361    5.54%
Elapsed time = 2423.04 sec. (1059741.71 ticks, tree = 0.80 MB, solutions = 5)
     36    38     8000.0000  2623     7580.0000     8000.0000   656622    5.54%
     38    40     8000.0000  2543     7580.0000     8000.0000   659608    5.54%
     40    42     8000.0000  2524     7580.0000     8000.0000   661345    5.54%
     42    44     8000.0000  2518     7580.0000     8000.0000   663651    5.54%
     45    47     8000.0000  2507     7580.0000     8000.0000   665857    5.54%
     47    49     8000.0000  2492     7580.0000     8000.0000   668088    5.54%
     52    54     8000.0000  2475     7580.0000     8000.0000   670225    5.54%
     55    57     8000.0000  2468     7580.0000     8000.0000   672420    5.54%
     58    60     8000.0000  2462     7580.0000     8000.0000   675088    5.54%
     61    63     8000.0000  2443     7580.0000     8000.0000   678452    5.54%
Elapsed time = 2619.52 sec. (1152231.90 ticks, tree = 1.05 MB, solutions = 5)
     64    66     8000.0000  2422     7580.0000     8000.0000   680542    5.54%
     69    71     8000.0000  2366     7580.0000     8000.0000   683125    5.54%
     70    72     8000.0000  2354     7580.0000     8000.0000   683173    5.54%
     75    77     8000.0000  2343     7580.0000     8000.0000   686781    5.54%
     79    81     8000.0000  2301     7580.0000     8000.0000   688617    5.54%
     81    83     7988.0000  1930     7580.0000     8000.0000   706129    5.54%
     84    86     7988.0000  1871     7580.0000     8000.0000   709537    5.54%
     87    89     7988.0000  1845     7580.0000     8000.0000   712937    5.54%
     89    91     7988.0000  1876     7580.0000     8000.0000   730570    5.54%
     91    93     7988.0000  1831     7580.0000     8000.0000   732313    5.54%
Elapsed time = 2688.60 sec. (1182664.79 ticks, tree = 1.33 MB, solutions = 5)
     93    95     7988.0000  1801     7580.0000     8000.0000   734221    5.54%
     94    96     7988.0000  1815     7580.0000     8000.0000   740621    5.54%
     95    97     7988.0000  1809     7580.0000     8000.0000   740831    5.54%
     96    98     7988.0000  1814     7580.0000     8000.0000   753499    5.54%
     98   100     7988.0000  1816     7580.0000     8000.0000   753682    5.54%
    100   102     7988.0000  1747     7580.0000     8000.0000   755747    5.54%
    101   103     7988.0000  1758     7580.0000     8000.0000   757842    5.54%
    102   104     7988.0000  1739     7580.0000     8000.0000   761285    5.54%
    103   105     7988.0000  1728     7580.0000     8000.0000   764680    5.54%
    104   106     7988.0000  1749     7580.0000     8000.0000   765598    5.54%
Elapsed time = 2747.46 sec. (1206949.29 ticks, tree = 1.63 MB, solutions = 5)
    106   108     7988.0000  1701     7580.0000     8000.0000   767524    5.54%
    108   110     7988.0000  1693     7580.0000     8000.0000   769810    5.54%
    109   111     7988.0000  1743     7580.0000     8000.0000   775376    5.54%
    111   113     7988.0000  1687     7580.0000     8000.0000   778344    5.54%
    112   114     7988.0000  2078     7580.0000     8000.0000   879480    5.54%
    115   117     7988.0000  1707     7580.0000     8000.0000   881138    5.54%
    117   119     7988.0000  1683     7580.0000     8000.0000   883105    5.54%
    120   122     7988.0000  1668     7580.0000     8000.0000   884977    5.54%
    123   125     7988.0000  1653     7580.0000     8000.0000   887296    5.54%
    124   126     7988.0000  1643     7580.0000     8000.0000   890965    5.54%
Elapsed time = 2899.27 sec. (1267860.63 ticks, tree = 2.20 MB, solutions = 5)
    128   130     7988.0000  1658     7580.0000     8000.0000   897404    5.54%
    130   132     7988.0000  1646     7580.0000     8000.0000   899473    5.54%
    133   135     7988.0000  1643     7580.0000     8000.0000   901144    5.54%
    134   136     7988.0000  1612     7580.0000     8000.0000   907576    5.54%
    135   137     7988.0000  2047     7580.0000     8000.0000   928019    5.54%
    137   139     7988.0000  1632     7580.0000     8000.0000   937310    5.54%
    138   140     7988.0000  1621     7580.0000     8000.0000   943736    5.54%
    140   142     7988.0000  1574     7580.0000     8000.0000   945437    5.54%
    141   143     7988.0000  1588     7580.0000     8000.0000   950205    5.54%
    142   144     7988.0000  1628     7580.0000     8000.0000   957284    5.54%
Elapsed time = 2978.70 sec. (1303864.16 ticks, tree = 2.37 MB, solutions = 5)
    145   147     7988.0000  1611     7580.0000     8000.0000   966095    5.54%
    148   150     7988.0000  1542     7580.0000     8000.0000   968653    5.54%
    150   152     7988.0000  1520     7580.0000     8000.0000   972518    5.54%
    154   156     7988.0000  1497     7580.0000     8000.0000   974032    5.54%
    158   160     7988.0000  1500     7580.0000     8000.0000   976230    5.54%
    160   162     7988.0000  1485     7580.0000     8000.0000   977148    5.54%
    163   165     7988.0000  1492     7580.0000     8000.0000   979042    5.54%
    165   167     7988.0000  1484     7580.0000     8000.0000   980995    5.54%
    169   171     7988.0000  1454     7580.0000     8000.0000   982923    5.54%
    170   172     7988.0000  1429     7580.0000     8000.0000   983985    5.54%
Elapsed time = 3294.91 sec. (1457558.47 ticks, tree = 2.64 MB, solutions = 5)
    171   173     7988.0000  1444     7580.0000     8000.0000   986049    5.54%
    177   179     7988.0000  1447     7580.0000     8000.0000   987909    5.54%
    179   181     7988.0000  1424     7580.0000     8000.0000   992865    5.54%
    182   184     7988.0000  1422     7580.0000     8000.0000   994531    5.54%
    183   185     7988.0000  1440     7580.0000     8000.0000   996264    5.54%
    184   186     7988.0000  1438     7580.0000     8000.0000  1001156    5.54%
    187   189     7988.0000  1377     7580.0000     8000.0000  1009290    5.54%
    189   191     7988.0000  1394     7580.0000     8000.0000  1015270    5.54%
    192   194     7988.0000  1381     7580.0000     8000.0000  1021236    5.54%
    196   198     7988.0000  1374     7580.0000     8000.0000  1023645    5.54%
Elapsed time = 3337.95 sec. (1481050.36 ticks, tree = 2.88 MB, solutions = 5)
    198   200     7988.0000  1412     7580.0000     8000.0000  1028661    5.54%
    199   201     7988.0000  1383     7580.0000     8000.0000  1031235    5.54%
    200   202     7988.0000  1354     7580.0000     8000.0000  1033491    5.54%
    202   204     7988.0000  1364     7580.0000     8000.0000  1036802    5.54%
    203   205     7988.0000  1349     7580.0000     8000.0000  1038709    5.54%
    205   207     7988.0000  1335     7580.0000     8000.0000  1041454    5.54%
    207   209     7988.0000  1300     7580.0000     8000.0000  1046030    5.54%
    208   210     7988.0000  1332     7580.0000     8000.0000  1047971    5.54%
    209   211     7988.0000  1311     7580.0000     8000.0000  1052546    5.54%
    215   217     7988.0000  1256     7580.0000     8000.0000  1069802    5.54%
Elapsed time = 3384.88 sec. (1506887.43 ticks, tree = 3.07 MB, solutions = 5)
    217   219     7988.0000  1232     7580.0000     8000.0000  1081958    5.54%
    219   221     7988.0000  1240     7580.0000     8000.0000  1089570    5.54%
    222   224     7988.0000  1237     7580.0000     8000.0000  1100807    5.54%
    223   225     7988.0000  1541     7580.0000     8000.0000  1121371    5.54%
    225   227     7988.0000  1260     7580.0000     8000.0000  1128985    5.54%
    227   229     7988.0000  1192     7580.0000     8000.0000  1136512    5.54%
    229   231     7988.0000  1157     7580.0000     8000.0000  1149082    5.54%
    230   232     7988.0000  1136     7580.0000     8000.0000  1165717    5.54%
    233   235     7988.0000  1174     7580.0000     8000.0000  1181332    5.54%
    236   238     7988.0000  1124     7580.0000     8000.0000  1189156    5.54%
Elapsed time = 3494.34 sec. (1561514.42 ticks, tree = 3.28 MB, solutions = 5)
    237   239     7988.0000  1133     7580.0000     8000.0000  1198183    5.54%
    239   241     7988.0000  1079     7580.0000     8000.0000  1210777    5.54%
    242   244     7988.0000  1393     7580.0000     8000.0000  1224679    5.54%
    244   246     7988.0000  1136     7580.0000     8000.0000  1243766    5.54%
    246   248     7988.0000  1432     7580.0000     8000.0000  1257138    5.54%
    250   252     7987.9208  1765     7580.0000     8000.0000  1289040    5.54%
    251   253     7988.0000  1056     7580.0000     8000.0000  1297993    5.54%
    252   254     7988.0000  1410     7580.0000     8000.0000  1309321    5.54%
    253   255     7988.0000  1522     7580.0000     8000.0000  1330706    5.54%
    254   256     7987.8667  1664     7580.0000     8000.0000  1348032    5.54%
Elapsed time = 3642.73 sec. (1632368.31 ticks, tree = 3.44 MB, solutions = 5)
    256   258     7987.9993  1632     7580.0000     8000.0000  1357760    5.54%
    257   259     7988.0000  1427     7580.0000     8000.0000  1366204    5.54%
    259   261     7988.0000  1228     7580.0000     8000.0000  1377663    5.54%
    260   262     7987.2500  1641     7580.0000     8000.0000  1388551    5.54%
    261   263     7988.0000  1354     7580.0000     8000.0000  1397142    5.54%
    263   265     7988.0000  1391     7580.0000     8000.0000  1408831    5.54%
    264   266     7987.9750  1636     7580.0000     8000.0000  1420398    5.54%
    266   268     7987.9396  1778     7580.0000     8000.0000  1426550    5.54%
    268   270     7987.7652  1871     7580.0000     8000.0000  1440554    5.54%
    269   271     7987.6552  1669     7580.0000     8000.0000  1458147    5.54%
Elapsed time = 3774.78 sec. (1695889.77 ticks, tree = 3.61 MB, solutions = 5)
    271   273     7987.3854  1894     7580.0000     8000.0000  1473626    5.54%
    275   277     7987.2515  1658     7580.0000     8000.0000  1481344    5.54%
    280   282     7986.8571  1514     7580.0000     8000.0000  1487692    5.54%
    284   286     7986.4000  1450     7580.0000     8000.0000  1495184    5.54%
    288   290     7986.4000  1444     7580.0000     8000.0000  1501921    5.54%
    293   295     7985.7736  1603     7580.0000     8000.0000  1510234    5.54%
    295   297     7984.2581  1627     7580.0000     8000.0000  1519678    5.54%
    296   298     7986.4000  1425     7580.0000     8000.0000  1525377    5.54%
    298   300     7986.3408  1592     7580.0000     8000.0000  1541843    5.54%
    302   304     7983.3405  1533     7580.0000     8000.0000  1549428    5.54%
Elapsed time = 3884.09 sec. (1753027.61 ticks, tree = 3.92 MB, solutions = 5)
    306   308     7983.0526  1486     7580.0000     8000.0000  1556957    5.54%
    308   310     7982.7500  1438     7580.0000     8000.0000  1564926    5.54%
    309   311     7981.1788  1816     7580.0000     8000.0000  1575219    5.54%
    310   312     7981.8132  1773     7580.0000     8000.0000  1582723    5.54%
    313   315     7979.8771  1564     7580.0000     8000.0000  1588741    5.54%
    317   319     7978.3098  1616     7580.0000     8000.0000  1595706    5.54%
*   320+  320                         7744.0000     8000.0000             3.31%
    320   322     7974.5883  1565     7744.0000     8000.0000  1602291    3.31%
    323   325     7972.3670  1606     7744.0000     8000.0000  1609947    3.31%
    327   329     7971.2698  1468     7744.0000     8000.0000  1620163    3.31%
    331   333     7970.3521  1578     7744.0000     8000.0000  1627782    3.31%
Elapsed time = 3977.75 sec. (1803566.29 ticks, tree = 4.21 MB, solutions = 6)
    334   336     7967.0339  1627     7744.0000     8000.0000  1636212    3.31%
    337   339     7966.7500  1487     7744.0000     8000.0000  1642808    3.31%
    340   342     7964.8448  1500     7744.0000     8000.0000  1650091    3.31%
    342   344     7961.7518  1501     7744.0000     8000.0000  1658981    3.31%
    346   348     7961.1808  1551     7744.0000     8000.0000  1665709    3.31%
    350   352     7958.6961  1428     7744.0000     8000.0000  1673574    3.31%
    354   356     7954.2621  1491     7744.0000     8000.0000  1681252    3.31%
    359   361     7952.9312  1483     7744.0000     8000.0000  1690107    3.31%
    362   364     7950.9474  1523     7744.0000     8000.0000  1695088    3.31%
    368   370     7951.2920  1458     7744.0000     8000.0000  1702380    3.31%
Elapsed time = 4061.63 sec. (1848722.39 ticks, tree = 4.58 MB, solutions = 6)
    370   372     7947.1720  1499     7744.0000     8000.0000  1707115    3.31%
    376   378     7949.4678  1537     7744.0000     8000.0000  1714179    3.31%
    380   382     7947.0837  1510     7744.0000     8000.0000  1720168    3.31%
    386   388     7944.8528  1481     7744.0000     8000.0000  1728117    3.31%
    389   391     7937.5290  1558     7744.0000     8000.0000  1740407    3.31%
    394   396     7933.2586  1510     7744.0000     8000.0000  1748863    3.31%
    396   398     7913.6703  1433     7744.0000     8000.0000  1757801    3.31%
    401   403     7905.2310  1275     7744.0000     8000.0000  1767676    3.31%
    409   411     7898.7665  1223     7744.0000     8000.0000  1778657    3.31%
*   410+  410                         7784.0000     8000.0000             2.77%
    417   419     7893.3219  1208     7784.0000     8000.0000  1786307    2.77%
Elapsed time = 4151.42 sec. (1895647.79 ticks, tree = 5.08 MB, solutions = 7)
*   420+  420                         7788.0000     8000.0000             2.72%
    430   431     7878.7206  1087     7788.0000     8000.0000  1794628    2.72%
    444   445     7856.4900  1043     7788.0000     8000.0000  1803949    2.72%
*   460+  459                         7832.0000     8000.0000             2.15%
*   460+  459                         7834.0000     8000.0000             2.12%
*   460+  459                         7838.0000     8000.0000             2.07%
*   467   459      integral     0     7840.0000     8000.0000  1808024    2.04%
    468   459     8000.0000  3052     7840.0000     8000.0000  1865933    2.04%
    475   466     8000.0000  2746     7840.0000     8000.0000  1871110    2.04%
    482   473     8000.0000  2602     7840.0000     8000.0000  1876504    2.04%
    492   483     8000.0000  2455     7840.0000     8000.0000  1883954    2.04%
    500   491     8000.0000  2253     7840.0000     8000.0000  1891553    2.04%
    510   501     8000.0000  2145     7840.0000     8000.0000  1896417    2.04%
    525   516     8000.0000  2041     7840.0000     8000.0000  1901724    2.04%
    527   518     7984.0000  1932     7840.0000     8000.0000  1911092    2.04%
Elapsed time = 4612.98 sec. (2136549.36 ticks, tree = 6.07 MB, solutions = 12)
    537   528     7984.0000  1853     7840.0000     8000.0000  1917948    2.04%
    550   541     7984.0000  1853     7840.0000     8000.0000  1928905    2.04%
    554   545     7984.0000  1869     7840.0000     8000.0000  1939787    2.04%
    555   546     7984.0000  1873     7840.0000     8000.0000  1949333    2.04%
    576   567     7984.0000  1794     7840.0000     8000.0000  1954861    2.04%
*   577+  563                         7842.0000     8000.0000             2.01%
    578   566     8000.0000  2803     7842.0000     8000.0000  2014779    2.01%
    579   567     8000.0000  2977     7842.0000     8000.0000  2062151    2.01%
*   581+  562                         7848.0000     8000.0000             1.94%
    581   564     8000.0000  2665     7848.0000     8000.0000  2066974    1.94%
    584   567     7999.2000  2152     7848.0000     8000.0000  2081521    1.94%
    587   570     7986.0000  1834     7848.0000     8000.0000  2104807    1.94%
Elapsed time = 5988.88 sec. (3096982.10 ticks, tree = 6.56 MB, solutions = 14)
    598   581     7986.0000  1842     7848.0000     8000.0000  2112285    1.94%
    600   583     7986.0000  1825     7848.0000     8000.0000  2112669    1.94%
    610   593     7986.0000  1829     7848.0000     8000.0000  2114803    1.94%
    616   599     7986.0000  1818     7848.0000     8000.0000  2121243    1.94%
    644   627     7986.0000  1823     7848.0000     8000.0000  2126262    1.94%
    650   633     7986.0000  1788     7848.0000     8000.0000  2127791    1.94%
    662   645     7986.0000  1808     7848.0000     8000.0000  2130668    1.94%
    677   660     7986.0000  1754     7848.0000     8000.0000  2131672    1.94%
    680   663     7986.0000  1725     7848.0000     8000.0000  2136658    1.94%

Performing restart 1

Repeating presolve.
Tried aggregator 1 time.
Reduced MIP has 33564 rows, 14491 columns, and 106356 nonzeros.
Reduced MIP has 14491 binaries, 0 generals, 0 SOSs, and 0 indicators.
Presolve time = 0.09 sec. (60.42 ticks)
Tried aggregator 1 time.
MIP Presolve eliminated 0 rows and 4 columns.
Reduced MIP has 33564 rows, 14487 columns, and 106348 nonzeros.
Reduced MIP has 14487 binaries, 0 generals, 0 SOSs, and 0 indicators.
Presolve time = 0.13 sec. (83.30 ticks)
Represolve time = 0.68 sec. (326.10 ticks)
    691     0     8000.0000  2921     7848.0000     Cuts: 153  2301269    1.94%
    691     0     8000.0000  3045     7848.0000     Cuts: 134  2369201    1.94%
    691     0     8000.0000  3100     7848.0000  ZeroHalf: 68  2434455    1.94%

Clique cuts applied:  39
Zero-half cuts applied:  292
Gomory fractional cuts applied:  6

Root node processing (before b&c):
  Real time             = 1475.24 sec. (619556.14 ticks)
Sequential b&c:
  Real time             = 5724.78 sec. (3099868.23 ticks)
                          ------------
Total (root+branch&cut) = 7200.02 sec. (3719424.37 ticks)
Solution is feasible.

---------------------
@@@ MIP_time_limit_feasible
>>> Benchmark sw100-15.cnf k 10 OPT 7848 TimeCost 7236.111378192902 TimeSolve 7226.17714881897 TimeRead 0.0072095394134521484 TimeTrans 9.927019834518433
